p tw 50 151
e 0 5
e 0 8
e 0 11
e 0 30
e 0 38
e 0 41
e 1 2
e 1 3
e 1 5
e 1 6
e 1 12
e 1 17
e 1 29
e 1 34
e 1 42
e 1 49
e 2 6
e 2 24
e 2 30
e 2 31
e 2 40
e 2 43
e 3 8
e 3 9
e 3 13
e 3 16
e 3 26
e 3 33
e 3 44
e 4 8
e 4 13
e 4 17
e 4 21
e 4 25
e 5 9
e 5 12
e 5 17
e 5 28
e 6 18
e 6 25
e 6 29
e 6 30
e 6 32
e 6 35
e 7 10
e 7 12
e 7 29
e 7 33
e 7 47
e 8 15
e 8 27
e 8 35
e 8 40
e 9 20
e 9 27
e 9 29
e 9 34
e 9 47
e 10 11
e 10 12
e 10 18
e 10 22
e 10 32
e 10 47
e 11 18
e 11 26
e 11 28
e 12 19
e 12 23
e 12 33
e 12 36
e 12 41
e 13 27
e 13 32
e 13 37
e 13 43
e 13 46
e 13 48
e 14 33
e 14 47
e 14 48
e 15 26
e 15 37
e 16 22
e 16 32
e 16 34
e 16 35
e 16 37
e 16 41
e 17 20
e 17 22
e 17 33
e 17 46
e 18 39
e 19 23
e 19 24
e 19 25
e 19 28
e 19 39
e 19 40
e 19 48
e 20 22
e 20 25
e 20 39
e 21 40
e 22 30
e 22 41
e 23 24
e 23 28
e 23 33
e 23 47
e 24 28
e 24 29
e 24 30
e 24 34
e 24 42
e 24 43
e 24 47
e 25 27
e 25 29
e 25 30
e 25 37
e 26 27
e 26 30
e 26 38
e 27 30
e 27 32
e 27 43
e 28 30
e 29 30
e 29 41
e 30 31
e 30 38
e 30 47
e 30 48
e 31 32
e 32 44
e 33 34
e 34 39
e 35 37
e 35 41
e 36 38
e 36 45
e 37 46
e 37 48
e 39 46
e 40 47
e 43 47
e 44 48
e 46 48
e 47 48
